\ENCODING=ISO-8859-1
\Problem name: IloCplex

Minimize
 obj1: 12000 mode(1)(1)#0 + 24000 mode(1)(2)#1 + 4000 mode(2)(1)#2
       + 5000 mode(2)(2)#3 + 13000 mode(3)(1)#4 + 17000 mode(3)(2)#5
       + 10000 mode(4)(1)#6 + 19000 mode(4)(2)#7 + 5000 mode(5)(1)#8
       + 7000 mode(5)(2)#9 + 1000 mode(6)(1)#10 + 6000 mode(6)(2)#11
       + 2000 beta#12
Subject To
 c1:  X(0)(0)#13 + X(0)(1)#14 + X(0)(2)#15 + X(0)(3)#16 + X(0)(4)#17
      + X(0)(5)#18 + X(0)(6)#19  = 1
 c2:  X(0)(0)#13 + X(1)(0)#20 + X(2)(0)#21 + X(3)(0)#22 + X(4)(0)#23
      + X(5)(0)#24 + X(6)(0)#25  = 1
 c3:  X(1)(0)#20 + X(1)(1)#26 + X(1)(2)#27 + X(1)(3)#28 + X(1)(4)#29
      + X(1)(5)#30 + X(1)(6)#31  = 1
 c4:  X(0)(1)#14 + X(1)(1)#26 + X(2)(1)#32 + X(3)(1)#33 + X(4)(1)#34
      + X(5)(1)#35 + X(6)(1)#36  = 1
 c5:  X(2)(0)#21 + X(2)(1)#32 + X(2)(2)#37 + X(2)(3)#38 + X(2)(4)#39
      + X(2)(5)#40 + X(2)(6)#41  = 1
 c6:  X(0)(2)#15 + X(1)(2)#27 + X(2)(2)#37 + X(3)(2)#42 + X(4)(2)#43
      + X(5)(2)#44 + X(6)(2)#45  = 1
 c7:  X(3)(0)#22 + X(3)(1)#33 + X(3)(2)#42 + X(3)(3)#46 + X(3)(4)#47
      + X(3)(5)#48 + X(3)(6)#49  = 1
 c8:  X(0)(3)#16 + X(1)(3)#28 + X(2)(3)#38 + X(3)(3)#46 + X(4)(3)#50
      + X(5)(3)#51 + X(6)(3)#52  = 1
 c9:  X(4)(0)#23 + X(4)(1)#34 + X(4)(2)#43 + X(4)(3)#50 + X(4)(4)#53
      + X(4)(5)#54 + X(4)(6)#55  = 1
 c10: X(0)(4)#17 + X(1)(4)#29 + X(2)(4)#39 + X(3)(4)#47 + X(4)(4)#53
      + X(5)(4)#56 + X(6)(4)#57  = 1
 c11: X(5)(0)#24 + X(5)(1)#35 + X(5)(2)#44 + X(5)(3)#51 + X(5)(4)#56
      + X(5)(5)#58 + X(5)(6)#59  = 1
 c12: X(0)(5)#18 + X(1)(5)#30 + X(2)(5)#40 + X(3)(5)#48 + X(4)(5)#54
      + X(5)(5)#58 + X(6)(5)#60  = 1
 c13: X(6)(0)#25 + X(6)(1)#36 + X(6)(2)#45 + X(6)(3)#52 + X(6)(4)#57
      + X(6)(5)#60 + X(6)(6)#61  = 1
 c14: X(0)(6)#19 + X(1)(6)#31 + X(2)(6)#41 + X(3)(6)#49 + X(4)(6)#55
      + X(5)(6)#59 + X(6)(6)#61  = 1
 c15: 50 mode(2)(1)#2 + 44 mode(2)(2)#3 + 234 X(1)(2)#27 + 55 mode(2)(0)#62
      + C(1)#63 - C(2)#64 <= 234
 c16: 23 mode(3)(1)#4 + 17 mode(3)(2)#5 + 234 X(1)(3)#28 + C(1)#63
      + 27 mode(3)(0)#65 - C(3)#66 <= 234
 c17: 26 mode(4)(1)#6 + 20 mode(4)(2)#7 + 234 X(1)(4)#29 + C(1)#63
      + 31 mode(4)(0)#67 - C(4)#68 <= 234
 c18: 35 mode(5)(1)#8 + 30 mode(5)(2)#9 + 234 X(1)(5)#30 + C(1)#63
      + 40 mode(5)(0)#69 - C(5)#70 <= 234
 c19: 9 mode(6)(1)#10 + 8 mode(6)(2)#11 + 234 X(1)(6)#31 + C(1)#63
      + 10 mode(6)(0)#71 - C(6)#72 <= 234
 c20: 60 mode(1)(1)#0 + 40 mode(1)(2)#1 + 234 X(2)(1)#32 - C(1)#63 + C(2)#64
      + 71 mode(1)(0)#73 <= 234
 c21: 23 mode(3)(1)#4 + 17 mode(3)(2)#5 + 234 X(2)(3)#38 + C(2)#64
      + 27 mode(3)(0)#65 - C(3)#66 <= 234
 c22: 26 mode(4)(1)#6 + 20 mode(4)(2)#7 + 234 X(2)(4)#39 + C(2)#64
      + 31 mode(4)(0)#67 - C(4)#68 <= 234
 c23: 35 mode(5)(1)#8 + 30 mode(5)(2)#9 + 234 X(2)(5)#40 + C(2)#64
      + 40 mode(5)(0)#69 - C(5)#70 <= 234
 c24: 9 mode(6)(1)#10 + 8 mode(6)(2)#11 + 234 X(2)(6)#41 + C(2)#64
      + 10 mode(6)(0)#71 - C(6)#72 <= 234
 c25: 60 mode(1)(1)#0 + 40 mode(1)(2)#1 + 234 X(3)(1)#33 - C(1)#63 + C(3)#66
      + 71 mode(1)(0)#73 <= 234
 c26: 50 mode(2)(1)#2 + 44 mode(2)(2)#3 + 234 X(3)(2)#42 + 55 mode(2)(0)#62
      - C(2)#64 + C(3)#66 <= 234
 c27: 26 mode(4)(1)#6 + 20 mode(4)(2)#7 + 234 X(3)(4)#47 + C(3)#66
      + 31 mode(4)(0)#67 - C(4)#68 <= 234
 c28: 35 mode(5)(1)#8 + 30 mode(5)(2)#9 + 234 X(3)(5)#48 + C(3)#66
      + 40 mode(5)(0)#69 - C(5)#70 <= 234
 c29: 9 mode(6)(1)#10 + 8 mode(6)(2)#11 + 234 X(3)(6)#49 + C(3)#66
      + 10 mode(6)(0)#71 - C(6)#72 <= 234
 c30: 60 mode(1)(1)#0 + 40 mode(1)(2)#1 + 234 X(4)(1)#34 - C(1)#63 + C(4)#68
      + 71 mode(1)(0)#73 <= 234
 c31: 50 mode(2)(1)#2 + 44 mode(2)(2)#3 + 234 X(4)(2)#43 + 55 mode(2)(0)#62
      - C(2)#64 + C(4)#68 <= 234
 c32: 23 mode(3)(1)#4 + 17 mode(3)(2)#5 + 234 X(4)(3)#50 + 27 mode(3)(0)#65
      - C(3)#66 + C(4)#68 <= 234
 c33: 35 mode(5)(1)#8 + 30 mode(5)(2)#9 + 234 X(4)(5)#54 + C(4)#68
      + 40 mode(5)(0)#69 - C(5)#70 <= 234
 c34: 9 mode(6)(1)#10 + 8 mode(6)(2)#11 + 234 X(4)(6)#55 + C(4)#68
      + 10 mode(6)(0)#71 - C(6)#72 <= 234
 c35: 60 mode(1)(1)#0 + 40 mode(1)(2)#1 + 234 X(5)(1)#35 - C(1)#63 + C(5)#70
      + 71 mode(1)(0)#73 <= 234
 c36: 50 mode(2)(1)#2 + 44 mode(2)(2)#3 + 234 X(5)(2)#44 + 55 mode(2)(0)#62
      - C(2)#64 + C(5)#70 <= 234
 c37: 23 mode(3)(1)#4 + 17 mode(3)(2)#5 + 234 X(5)(3)#51 + 27 mode(3)(0)#65
      - C(3)#66 + C(5)#70 <= 234
 c38: 26 mode(4)(1)#6 + 20 mode(4)(2)#7 + 234 X(5)(4)#56 + 31 mode(4)(0)#67
      - C(4)#68 + C(5)#70 <= 234
 c39: 9 mode(6)(1)#10 + 8 mode(6)(2)#11 + 234 X(5)(6)#59 + C(5)#70
      + 10 mode(6)(0)#71 - C(6)#72 <= 234
 c40: 60 mode(1)(1)#0 + 40 mode(1)(2)#1 + 234 X(6)(1)#36 - C(1)#63 + C(6)#72
      + 71 mode(1)(0)#73 <= 234
 c41: 50 mode(2)(1)#2 + 44 mode(2)(2)#3 + 234 X(6)(2)#45 + 55 mode(2)(0)#62
      - C(2)#64 + C(6)#72 <= 234
 c42: 23 mode(3)(1)#4 + 17 mode(3)(2)#5 + 234 X(6)(3)#52 + 27 mode(3)(0)#65
      - C(3)#66 + C(6)#72 <= 234
 c43: 26 mode(4)(1)#6 + 20 mode(4)(2)#7 + 234 X(6)(4)#57 + 31 mode(4)(0)#67
      - C(4)#68 + C(6)#72 <= 234
 c44: 35 mode(5)(1)#8 + 30 mode(5)(2)#9 + 234 X(6)(5)#60 + 40 mode(5)(0)#69
      - C(5)#70 + C(6)#72 <= 234
 c45: X(6)(0)#25  = 1
 c46: X(0)(1)#14  = 1
 c47: C(0)#74  = 0
 c48: - C(1)#63 + C(3)#66 >= 1
 c49: - C(2)#64 + C(3)#66 >= 1
 c50: - C(3)#66 + C(4)#68 >= 1
 c51: - C(3)#66 + C(5)#70 >= 1
 c52: - C(4)#68 + C(6)#72 >= 1
 c53: - C(5)#70 + C(6)#72 >= 1
 c54: mode(0)(0)#75 + mode(0)(1)#76 + mode(0)(2)#77  = 1
 c55: mode(1)(1)#0 + mode(1)(2)#1 + mode(1)(0)#73  = 1
 c56: mode(2)(1)#2 + mode(2)(2)#3 + mode(2)(0)#62  = 1
 c57: mode(3)(1)#4 + mode(3)(2)#5 + mode(3)(0)#65  = 1
 c58: mode(4)(1)#6 + mode(4)(2)#7 + mode(4)(0)#67  = 1
 c59: mode(5)(1)#8 + mode(5)(2)#9 + mode(5)(0)#69  = 1
 c60: mode(6)(1)#10 + mode(6)(2)#11 + mode(6)(0)#71  = 1
 c61: - 60 mode(1)(1)#0 - 40 mode(1)(2)#1 - 50 mode(2)(1)#2 - 44 mode(2)(2)#3
      - 23 mode(3)(1)#4 - 17 mode(3)(2)#5 - 26 mode(4)(1)#6 - 20 mode(4)(2)#7
      - 35 mode(5)(1)#8 - 30 mode(5)(2)#9 - 9 mode(6)(1)#10 - 8 mode(6)(2)#11
      - 55 mode(2)(0)#62 - 27 mode(3)(0)#65 - 31 mode(4)(0)#67
      - 40 mode(5)(0)#69 - 10 mode(6)(0)#71 - 71 mode(1)(0)#73 + alfa#78  = 0
 c62: beta#12 - alfa#78 >= -100
 c63: X(0)(0)#13  = 0
 c64: X(1)(1)#26  = 0
 c65: X(2)(2)#37  = 0
 c66: X(3)(3)#46  = 0
 c67: X(4)(4)#53  = 0
 c68: X(5)(5)#58  = 0
 c69: X(6)(6)#61  = 0
Bounds
 0 <= mode(1)(1)#0 <= 1
 0 <= mode(1)(2)#1 <= 1
 0 <= mode(2)(1)#2 <= 1
 0 <= mode(2)(2)#3 <= 1
 0 <= mode(3)(1)#4 <= 1
 0 <= mode(3)(2)#5 <= 1
 0 <= mode(4)(1)#6 <= 1
 0 <= mode(4)(2)#7 <= 1
 0 <= mode(5)(1)#8 <= 1
 0 <= mode(5)(2)#9 <= 1
 0 <= mode(6)(1)#10 <= 1
 0 <= mode(6)(2)#11 <= 1
 0 <= beta#12 <= 234
 0 <= X(0)(0)#13 <= 1
 0 <= X(0)(1)#14 <= 1
 0 <= X(0)(2)#15 <= 1
 0 <= X(0)(3)#16 <= 1
 0 <= X(0)(4)#17 <= 1
 0 <= X(0)(5)#18 <= 1
 0 <= X(0)(6)#19 <= 1
 0 <= X(1)(0)#20 <= 1
 0 <= X(2)(0)#21 <= 1
 0 <= X(3)(0)#22 <= 1
 0 <= X(4)(0)#23 <= 1
 0 <= X(5)(0)#24 <= 1
 0 <= X(6)(0)#25 <= 1
 0 <= X(1)(1)#26 <= 1
 0 <= X(1)(2)#27 <= 1
 0 <= X(1)(3)#28 <= 1
 0 <= X(1)(4)#29 <= 1
 0 <= X(1)(5)#30 <= 1
 0 <= X(1)(6)#31 <= 1
 0 <= X(2)(1)#32 <= 1
 0 <= X(3)(1)#33 <= 1
 0 <= X(4)(1)#34 <= 1
 0 <= X(5)(1)#35 <= 1
 0 <= X(6)(1)#36 <= 1
 0 <= X(2)(2)#37 <= 1
 0 <= X(2)(3)#38 <= 1
 0 <= X(2)(4)#39 <= 1
 0 <= X(2)(5)#40 <= 1
 0 <= X(2)(6)#41 <= 1
 0 <= X(3)(2)#42 <= 1
 0 <= X(4)(2)#43 <= 1
 0 <= X(5)(2)#44 <= 1
 0 <= X(6)(2)#45 <= 1
 0 <= X(3)(3)#46 <= 1
 0 <= X(3)(4)#47 <= 1
 0 <= X(3)(5)#48 <= 1
 0 <= X(3)(6)#49 <= 1
 0 <= X(4)(3)#50 <= 1
 0 <= X(5)(3)#51 <= 1
 0 <= X(6)(3)#52 <= 1
 0 <= X(4)(4)#53 <= 1
 0 <= X(4)(5)#54 <= 1
 0 <= X(4)(6)#55 <= 1
 0 <= X(5)(4)#56 <= 1
 0 <= X(6)(4)#57 <= 1
 0 <= X(5)(5)#58 <= 1
 0 <= X(5)(6)#59 <= 1
 0 <= X(6)(5)#60 <= 1
 0 <= X(6)(6)#61 <= 1
 0 <= mode(2)(0)#62 <= 1
      C(1)#63 >= 0
      C(2)#64 >= 0
 0 <= mode(3)(0)#65 <= 1
      C(3)#66 >= 0
 0 <= mode(4)(0)#67 <= 1
      C(4)#68 >= 0
 0 <= mode(5)(0)#69 <= 1
      C(5)#70 >= 0
 0 <= mode(6)(0)#71 <= 1
      C(6)#72 >= 0
 0 <= mode(1)(0)#73 <= 1
      C(0)#74 >= 0
 0 <= mode(0)(0)#75 <= 1
 0 <= mode(0)(1)#76 <= 1
 0 <= mode(0)(2)#77 <= 1
      alfa#78 >= 0
Binaries
 mode(1)(1)#0  mode(1)(2)#1  mode(2)(1)#2  mode(2)(2)#3  mode(3)(1)#4 
 mode(3)(2)#5  mode(4)(1)#6  mode(4)(2)#7  mode(5)(1)#8  mode(5)(2)#9 
 mode(6)(1)#10  mode(6)(2)#11  X(0)(0)#13  X(0)(1)#14  X(0)(2)#15  X(0)(3)#16 
 X(0)(4)#17  X(0)(5)#18  X(0)(6)#19  X(1)(0)#20  X(2)(0)#21  X(3)(0)#22 
 X(4)(0)#23  X(5)(0)#24  X(6)(0)#25  X(1)(1)#26  X(1)(2)#27  X(1)(3)#28 
 X(1)(4)#29  X(1)(5)#30  X(1)(6)#31  X(2)(1)#32  X(3)(1)#33  X(4)(1)#34 
 X(5)(1)#35  X(6)(1)#36  X(2)(2)#37  X(2)(3)#38  X(2)(4)#39  X(2)(5)#40 
 X(2)(6)#41  X(3)(2)#42  X(4)(2)#43  X(5)(2)#44  X(6)(2)#45  X(3)(3)#46 
 X(3)(4)#47  X(3)(5)#48  X(3)(6)#49  X(4)(3)#50  X(5)(3)#51  X(6)(3)#52 
 X(4)(4)#53  X(4)(5)#54  X(4)(6)#55  X(5)(4)#56  X(6)(4)#57  X(5)(5)#58 
 X(5)(6)#59  X(6)(5)#60  X(6)(6)#61  mode(2)(0)#62  mode(3)(0)#65 
 mode(4)(0)#67  mode(5)(0)#69  mode(6)(0)#71  mode(1)(0)#73  mode(0)(0)#75 
 mode(0)(1)#76  mode(0)(2)#77 
Generals
 beta#12  C(1)#63  C(2)#64  C(3)#66  C(4)#68  C(5)#70  C(6)#72  C(0)#74 
 alfa#78 
End
